c Sudoku solution
p cnf 729 0
141 0
195 0
229 0
267 0
322 0
331 0
355 0
369 0
411 0
497 0
533 0
547 0
575 0
586 0
614 0
528 0
656 0
665 0
627 0
681 0
693 0
712 0
519 0
632 0
753 0
874 0
945 0
958 0
857 0
551 0
459 0
648 0
679 0
168 0
463 0
189 0
961 0
972 0
152 0
254 0
478 0
243 0
346 0
435 0
426 0
215 0
282 0
484 0
592 0
442 0
564 0
849 0
862 0
766 0
744 0
394 0
924 0
123 0
134 0
373 0
813 0
983 0
318 0
117 0
236 0
176 0
271 0
298 0
387 0
916 0
838 0
896 0
999 0
739 0
937 0
821 0
725 0
885 0
777 0
791 0
788 0
